
===== New CPLEX run =====
Instance: /home/yorig/tuner/mpils-tests/instances/miplib/medium-1/neos-3024952-loue.mps
Config: /scratch/yorig/mpils-results-grid-seconds-10-no-mip-start/medium-1/4proc/seed-1/9_neos-3024952-loue_seed-1_20260503_044429/expansion/config_param_CPXPARAM_MIP_Limits_AggForCut_1_iter_3.prm
========================

Selected objective sense:  MINIMIZE
Selected objective  name:  R3706
Selected RHS        name:  B
Selected bound      name:  BOUND
Version identifier: 22.1.2.0 | 2024-11-26 | 0edbb82fd
CPXPARAM_Threads                                 8
CPXPARAM_Parallel                                1
CPXPARAM_MIP_Cuts_Cliques                        -1
CPXPARAM_MIP_Limits_GomoryCand                   50
CPXPARAM_MIP_Cuts_PathCut                        1
CPXPARAM_MIP_Cuts_MIRCut                         2
CPXPARAM_MIP_Cuts_Disjunctive                    1
CPXPARAM_MIP_Limits_AggForCut                    1
CPXPARAM_Emphasis_MIP                            4
CPXPARAM_MIP_Strategy_Dive                       1
CPXPARAM_TimeLimit                               10
Tried aggregator 2 times.
MIP Presolve eliminated 40 rows and 0 columns.
MIP Presolve modified 80 coefficients.
Aggregator did 32 substitutions.
Reduced MIP has 3633 rows, 3223 columns, and 15906 nonzeros.
Reduced MIP has 0 binaries, 3223 generals, 0 SOSs, and 0 indicators.
Presolve time = 0.01 sec. (7.72 ticks)
Tried aggregator 1 time.
Detecting symmetries...
Reduced MIP has 3633 rows, 3223 columns, and 15906 nonzeros.
Reduced MIP has 0 binaries, 3223 generals, 0 SOSs, and 0 indicators.
Presolve time = 0.01 sec. (8.53 ticks)
MIP emphasis: hidden feasible solutions.
MIP search method: dynamic search.
Parallel mode: deterministic, using up to 8 threads.
Root relaxation solution time = 0.45 sec. (166.79 ticks)

        Nodes                                         Cuts/
   Node  Left     Objective  IInf  Best Integer    Best Bound    ItCnt     Gap

      0     0    22882.0000   397                  22882.0000     3901         
      0     0    23571.3985   701                   Cuts: 359     4303         
      0     0    23643.7048   718                   Cuts: 114     4403         
      0     0    23706.1437   845                    Cuts: 95     4476         
      0     0    23714.2937   803                   Cuts: 104     4504         
      0     0    23756.1152   781                   Cuts: 103     4559         
Detecting symmetries...
      0     0    23762.3151  1033                    Cuts: 99     4579         
      0     0    23876.6524   953                   Cuts: 103     4682         
      0     0    23985.3446  1015                    Cuts: 98     4772         
      0     0    24107.0571   951                    Cuts: 77     4840         
      0     0    24156.3971   997                    Cuts: 70     4902         
      0     0    24166.1617  1032                    Cuts: 58     4933         
      0     0    24257.8617  1048                    Cuts: 73     5003         
      0     0    24325.2371  1142                    Cuts: 95     5095         
      0     0    24368.5191   975                    Cuts: 53     5155         
      0     0    24385.2539   974                    Cuts: 50     5198         
      0     0    24399.3612  1039                    Cuts: 47     5248         
      0     0    24403.6492  1022                ZeroHalf: 32     5298         
      0     0    24552.2919   893                    Cuts: 45     5436         
      0     0    24574.9997   842                    Cuts: 65     5478         
      0     0    24581.1219   795                ZeroHalf: 32     5511         
      0     0    24581.6219   868                ZeroHalf: 15     5524         
      0     0    24582.9410   877                 ZeroHalf: 9     5538         
Detecting symmetries...
      0     2    24582.9410   877                  24582.9410     5538         
Elapsed time = 2.79 sec. (1774.15 ticks, tree = 0.02 MB, solutions = 0)
    596   491    24824.1731   672                  24582.9410     9596         
   1362  1180    25282.6076   601                  24582.9410    17539         
   2647  2441    26448.0000   354                  24582.9410    26006         
   4521  4019    28835.0952   238                  24582.9410    34773         
   6420  6001    31698.6286   121                  24582.9410    44409         
*  6998+ 6368                        31681.0000    24582.9410            22.40%
   7840  6756    24855.0741   802    31681.0000    24582.9410    51753   22.40%
   7894  6699    25130.8648   658    31681.0000    24582.9410    51385   22.40%
   8180  7017    24927.1362   693    31681.0000    24582.9410    54310   22.40%
*  8327+ 7180                        31481.0000    24582.9410            21.91%
*  8352+ 7259                        31471.0000    24582.9410            21.89%

Performing restart 1

Repeating presolve.
Tried aggregator 1 time.
MIP Presolve modified 16 coefficients.
Reduced MIP has 3633 rows, 3223 columns, and 15892 nonzeros.
Reduced MIP has 0 binaries, 3223 generals, 0 SOSs, and 0 indicators.
Presolve time = 0.00 sec. (6.35 ticks)
Tried aggregator 1 time.
Reduced MIP has 3633 rows, 3223 columns, and 15892 nonzeros.
Reduced MIP has 0 binaries, 3223 generals, 0 SOSs, and 0 indicators.
Presolve time = 0.01 sec. (8.81 ticks)
Represolve time = 0.02 sec. (27.74 ticks)
   8505     0    24652.1998   844    31471.0000      Cuts: 92    65788   21.67%
   8505     0    24663.7072   882    31471.0000      Cuts: 26    65831   21.63%
   8505     0    24673.5990   822    31471.0000      Cuts: 27    65872   21.60%
*  8505+    0                        31261.0000    24673.5990            21.07%
   8505     0    24677.3219   825    31261.0000      Cuts: 18    65906   21.06%
   8505     0    24678.1365   878    31261.0000      Cuts: 18    65943   21.06%
*  8505+    0                        30701.0000    24678.1365            19.62%
   8505     0    24682.6633   896    30701.0000      Cuts: 11    65974   19.60%
   8505     0    24687.1052   767    30701.0000      Cuts: 18    65999   19.59%
   8505     0    24727.4520   692    30701.0000      Cuts: 17    66054   19.46%
   8505     0    24740.0464   673    30701.0000      Cuts: 17    66085   19.42%
   8505     0    24745.9530   734    30701.0000      Cuts: 10    66116   19.40%
   8505     0    24746.1616   755    30701.0000      Cuts: 21    66138   19.40%
   8505     0    24746.1616   756    30701.0000   ZeroHalf: 8    66144   19.40%
   8505     0    24746.2687   816    30701.0000   ZeroHalf: 2    66154   19.40%
   8505     0    24780.0996   770    30701.0000       Cuts: 8    66187   19.29%
   8505     0    24783.1384   872    30701.0000      Cuts: 12    66212   19.28%
   8505     0    24783.1384   899    30701.0000       Cuts: 8    66222   19.28%
*  8505+    0                        30475.0000    24783.1384            18.68%
Advanced basis not built.

Mixed integer rounding cuts applied:  27
Flow path cuts applied:  0
Zero-half cuts applied:  148
Gomory fractional cuts applied:  63
Disjunctive cuts applied:  0
Cone linearizations applied:  0

Root node processing (before b&c):
  Real time             =    2.59 sec. (1771.55 ticks)
Parallel b&c, 8 threads:
  Real time             =    7.42 sec. (4588.20 ticks)
  Sync time (average)   =    1.16 sec.
  Wait time (average)   =    0.00 sec.
                          ------------
Total (root+branch&cut) =   10.01 sec. (6359.75 ticks)
Gap: 18.68%
Upper bound: 30475
Lower bound: 24783.1
End of CPLEX run. Time: 10.0077 seconds

===== New CPLEX run =====
Instance: /home/yorig/tuner/mpils-tests/instances/miplib/medium-1/neos-3024952-loue.mps
Config: /scratch/yorig/mpils-results-grid-seconds-10-no-mip-start/medium-1/4proc/seed-1/9_neos-3024952-loue_seed-1_20260503_044429/expansion/config_param_CPXPARAM_MIP_Limits_AggForCut_2_iter_3.prm
========================

Selected objective sense:  MINIMIZE
Selected objective  name:  R3706
Selected RHS        name:  B
Selected bound      name:  BOUND
Version identifier: 22.1.2.0 | 2024-11-26 | 0edbb82fd
CPXPARAM_Threads                                 8
CPXPARAM_Parallel                                1
CPXPARAM_MIP_Cuts_Cliques                        -1
CPXPARAM_MIP_Limits_GomoryCand                   50
CPXPARAM_MIP_Cuts_PathCut                        1
CPXPARAM_MIP_Cuts_MIRCut                         2
CPXPARAM_MIP_Cuts_Disjunctive                    1
CPXPARAM_MIP_Limits_AggForCut                    2
CPXPARAM_Emphasis_MIP                            4
CPXPARAM_MIP_Strategy_Dive                       1
CPXPARAM_TimeLimit                               10
Tried aggregator 2 times.
MIP Presolve eliminated 40 rows and 0 columns.
MIP Presolve modified 80 coefficients.
Aggregator did 32 substitutions.
Reduced MIP has 3633 rows, 3223 columns, and 15906 nonzeros.
Reduced MIP has 0 binaries, 3223 generals, 0 SOSs, and 0 indicators.
Presolve time = 0.01 sec. (7.72 ticks)
Tried aggregator 1 time.
Detecting symmetries...
Reduced MIP has 3633 rows, 3223 columns, and 15906 nonzeros.
Reduced MIP has 0 binaries, 3223 generals, 0 SOSs, and 0 indicators.
Presolve time = 0.01 sec. (8.53 ticks)
MIP emphasis: hidden feasible solutions.
MIP search method: dynamic search.
Parallel mode: deterministic, using up to 8 threads.
Root relaxation solution time = 0.14 sec. (166.79 ticks)

        Nodes                                         Cuts/
   Node  Left     Objective  IInf  Best Integer    Best Bound    ItCnt     Gap

      0     0    22882.0000   397                  22882.0000     3901         
      0     0    23571.3985   704                   Cuts: 421     4310         
      0     0    23664.1524   737                   Cuts: 138     4392         
      0     0    23723.3817   794                   Cuts: 103     4437         
      0     0    23728.3817   846                   Cuts: 101     4466         
      0     0    23754.1032   984                   Cuts: 108     4512         
Detecting symmetries...
      0     0    23930.2032   813                   Cuts: 119     4627         
      0     0    23989.0917  1000                   Cuts: 116     4687         
      0     0    24082.6948   992                   Cuts: 103     4768         
      0     0    24195.6338  1069                    Cuts: 94     4883         
      0     0    24400.3779  1118                    Cuts: 67     5029         
      0     0    24431.5900  1146                    Cuts: 67     5135         
      0     0    24439.4802  1172                    Cuts: 42     5193         
      0     0    24446.7369  1080                    Cuts: 39     5252         
      0     0    24448.7234  1047                    Cuts: 34     5305         
      0     0    24450.7115  1059                    Cuts: 26     5333         
      0     0    24451.3901  1054                    Cuts: 28     5386         
Detecting symmetries...
      0     2    24451.3901  1054                  24514.0742     5386         
Elapsed time = 1.32 sec. (1809.98 ticks, tree = 0.02 MB, solutions = 0)
    225   101    24837.8295   835                  24514.0742     6276         
   1019   954    24560.7774   862                  24514.0742    13949         
   2254  2048    26414.7640   537                  24514.0742    22061         
   3957  3509    29113.5276   327                  24514.0742    32160         
   5955  5429    30043.0000    86                  24514.0742    41780         
*  7848  7119      integral     0    34194.0000    24514.0742    48933   28.31%
*  8048+ 7601                        32631.0000    24514.0742            24.87%
   8420  7086    24795.0551   813    32631.0000    24514.0742    54284   24.87%
*  8465+ 6900                        32331.0000    24514.0742            24.18%
   8465  6902    24644.5829   951    32331.0000    24514.0742    52551   24.18%
   8757  7160    24961.5174   803    32331.0000    24514.0742    55052   24.18%

Performing restart 1

Repeating presolve.
Tried aggregator 1 time.
MIP Presolve modified 16 coefficients.
Reduced MIP has 3633 rows, 3223 columns, and 15892 nonzeros.
Reduced MIP has 0 binaries, 3223 generals, 0 SOSs, and 0 indicators.
Presolve time = 0.00 sec. (6.35 ticks)
Tried aggregator 1 time.
Reduced MIP has 3633 rows, 3223 columns, and 15892 nonzeros.
Reduced MIP has 0 binaries, 3223 generals, 0 SOSs, and 0 indicators.
Presolve time = 0.01 sec. (8.81 ticks)
Represolve time = 0.02 sec. (26.66 ticks)
   8758     0    24548.8823   792    32331.0000      Cuts: 96    64862   24.07%
   8758     0    24629.9910   920    32331.0000      Cuts: 60    64990   23.82%
*  8758+    0                        32031.0000    24629.9910            23.11%
   8758     0    24640.9296   948    32031.0000      Cuts: 51    65082   23.07%
   8758     0    24643.5356   789    32031.0000      Cuts: 28    65147   23.06%
*  8758+    0                        31129.0000    24643.5356            20.83%
   8758     0    24645.3797   940    31129.0000      Cuts: 33    65202   20.83%
   8758     0    24679.6108   993    31129.0000      Cuts: 21    65260   20.72%
   8758     0    24685.7305   932    31129.0000      Cuts: 17    65299   20.70%
   8758     0    24696.3826  1066    31129.0000      Cuts: 26    65336   20.66%
   8758     0    24698.9331  1121    31129.0000      Cuts: 36    65373   20.66%
   8758     0    24699.9618  1135    31129.0000      Cuts: 23    65409   20.65%
   8758     0    24700.4556   981    31129.0000      Cuts: 10    65422   20.65%
*  8758+    0                        30663.0000    24700.4556            19.45%
   8758     0    24700.5211  1079    30663.0000       Cuts: 5    65430   19.45%
   8758     0    24700.5228  1108    30663.0000       Cuts: 8    65437   19.45%
   8758     0    24700.6033  1071    30663.0000       Cuts: 5    65447   19.44%
   8758     0    24700.6033  1109    30663.0000       Cuts: 5    65461   19.44%
   8758     0    24700.6081  1112    30663.0000       Cuts: 3    65469   19.44%
   8758     2    24700.6081  1112    30663.0000    24700.6081    65469   19.44%
Elapsed time = 6.93 sec. (7904.70 ticks, tree = 0.02 MB, solutions = 11)
   8852    87    24713.4170   936    30663.0000    24705.8516    66352   19.43%
   9522   666    25204.6337   507    30663.0000    24705.8516    69842   19.43%
* 10134+ 1089                        30483.0000    24705.8516            18.95%
* 10800+ 1592                        30330.0000    24705.8516            18.54%
  11024  1816    25168.0040   765    30330.0000    24705.8516    80210   18.54%

Mixed integer rounding cuts applied:  48
Flow path cuts applied:  0
Zero-half cuts applied:  153
Gomory fractional cuts applied:  53
Disjunctive cuts applied:  0
Cone linearizations applied:  0

Root node processing (before b&c):
  Real time             =    1.29 sec. (1807.62 ticks)
Parallel b&c, 8 threads:
  Real time             =    8.71 sec. (9009.18 ticks)
  Sync time (average)   =    1.95 sec.
  Wait time (average)   =    0.00 sec.
                          ------------
Total (root+branch&cut) =   10.00 sec. (10816.80 ticks)
Gap: 18.54%
Upper bound: 30330
Lower bound: 24705.9
End of CPLEX run. Time: 10.0062 seconds

===== New CPLEX run =====
Instance: /home/yorig/tuner/mpils-tests/instances/miplib/medium-1/neos-3024952-loue.mps
Config: /scratch/yorig/mpils-results-grid-seconds-10-no-mip-start/medium-1/4proc/seed-1/9_neos-3024952-loue_seed-1_20260503_044429/expansion/config_param_CPXPARAM_MIP_Limits_AggForCut_5_iter_3.prm
========================

Selected objective sense:  MINIMIZE
Selected objective  name:  R3706
Selected RHS        name:  B
Selected bound      name:  BOUND
Version identifier: 22.1.2.0 | 2024-11-26 | 0edbb82fd
CPXPARAM_Threads                                 8
CPXPARAM_Parallel                                1
CPXPARAM_MIP_Cuts_Cliques                        -1
CPXPARAM_MIP_Limits_GomoryCand                   50
CPXPARAM_MIP_Cuts_PathCut                        1
CPXPARAM_MIP_Cuts_MIRCut                         2
CPXPARAM_MIP_Cuts_Disjunctive                    1
CPXPARAM_MIP_Limits_AggForCut                    5
CPXPARAM_Emphasis_MIP                            4
CPXPARAM_MIP_Strategy_Dive                       1
CPXPARAM_TimeLimit                               10
Tried aggregator 2 times.
MIP Presolve eliminated 40 rows and 0 columns.
MIP Presolve modified 80 coefficients.
Aggregator did 32 substitutions.
Reduced MIP has 3633 rows, 3223 columns, and 15906 nonzeros.
Reduced MIP has 0 binaries, 3223 generals, 0 SOSs, and 0 indicators.
Presolve time = 0.01 sec. (7.72 ticks)
Tried aggregator 1 time.
Detecting symmetries...
Reduced MIP has 3633 rows, 3223 columns, and 15906 nonzeros.
Reduced MIP has 0 binaries, 3223 generals, 0 SOSs, and 0 indicators.
Presolve time = 0.01 sec. (8.53 ticks)
MIP emphasis: hidden feasible solutions.
MIP search method: dynamic search.
Parallel mode: deterministic, using up to 8 threads.
Root relaxation solution time = 0.22 sec. (166.79 ticks)

        Nodes                                         Cuts/
   Node  Left     Objective  IInf  Best Integer    Best Bound    ItCnt     Gap

      0     0    22882.0000   397                  22882.0000     3901         
      0     0    23571.3985   707                   Cuts: 434     4324         
      0     0    23679.7274   771                   Cuts: 280     4465         
      0     0    23768.9802  1027                   Cuts: 243     4597         
      0     0    23798.2381  1038                   Cuts: 234     4675         
      0     0    23899.1159  1293                   Cuts: 212     4781         
Detecting symmetries...
      0     0    24037.6923  1248                   Cuts: 244     4931         
      0     0    24205.0639  1303                   Cuts: 252     5086         
      0     0    24533.0770  1382                   Cuts: 194     5323         
      0     0    24731.7122  1308                   Cuts: 183     5453         
      0     0    24871.7835  1380                   Cuts: 121     5583         
      0     0    25156.6694  1186                   Cuts: 116     5756         
      0     0    25254.4676  1392                   Cuts: 116     5850         
      0     0    25302.9061  1346                   Cuts: 105     5941         
      0     0    25334.3247  1391                    Cuts: 84     6013         
      0     0    25390.1368  1233                    Cuts: 74     6092         
      0     0    25396.7922  1343                    Cuts: 72     6131         
      0     0    25406.7176  1361                    Cuts: 48     6190         
      0     0    25420.2384  1363                    Cuts: 29     6223         
      0     0    25435.1465  1374                    Cuts: 33     6268         
      0     0    25437.4839  1340                    Cuts: 29     6301         
      0     0    25437.4986  1402                    Cuts: 11     6316         
      0     0    25439.3334  1471                    Cuts: 16     6336         
Detecting symmetries...
      0     2    25439.3334  1471                  25471.7395     6336         
Elapsed time = 3.60 sec. (2948.52 ticks, tree = 0.02 MB, solutions = 0)
    243   169    25536.5882  1187                  25471.7395     7340         
   1054   919    25694.3520   823                  25471.7395    12829         
   2068  1821    26434.3873   723                  25471.7395    21901         
   3327  3206    28197.0406   621                  25471.7395    36152         
   4846  4401    30502.6752   225                  25471.7395    45760         
*  5418+ 4897                        31045.0000    25471.7395            17.95%
   5857  5499    25501.2622  1166    31045.0000    25471.7395    53383   17.95%
   5897  5380    31014.4000    79    31045.0000    25471.7395    52801   17.95%
   6001  5678    25764.1108  1073    31045.0000    25471.7395    54600   17.95%
   6125  5802    26482.4328   660    31045.0000    25471.7395    55827   17.95%
*  6887+ 6335                        30633.0000    25471.7395            16.85%
*  6906+ 6318                        30523.0000    25471.7395            16.55%

Performing restart 1

Repeating presolve.
Tried aggregator 1 time.
MIP Presolve modified 16 coefficients.
Reduced MIP has 3633 rows, 3223 columns, and 15892 nonzeros.
Reduced MIP has 0 binaries, 3223 generals, 0 SOSs, and 0 indicators.
Presolve time = 0.00 sec. (6.35 ticks)
Tried aggregator 1 time.
Reduced MIP has 3633 rows, 3223 columns, and 15892 nonzeros.
Reduced MIP has 0 binaries, 3223 generals, 0 SOSs, and 0 indicators.
Presolve time = 0.01 sec. (8.81 ticks)
Represolve time = 0.03 sec. (32.90 ticks)
   7127     0    25531.7620  1269    30523.0000      Cuts: 72    70332   16.35%
   7127     0    25572.4850  1160    30523.0000      Cuts: 63    70432   16.22%
*  7127+    0                        29881.0000    25572.4850            14.42%
   7127     0    25605.9303  1195    29881.0000      Cuts: 47    70496   14.31%
   7127     0    25610.4341  1121    29881.0000      Cuts: 53    70547   14.29%
   7127     0    25612.6202  1059    29881.0000      Cuts: 33    70583   14.28%
   7127     0    25613.7494  1001    29881.0000      Cuts: 20    70607   14.28%
   7127     0    25615.0268  1048    29881.0000      Cuts: 11    70626   14.28%
   7127     0    25616.3180  1082    29881.0000      Cuts: 12    70637   14.27%
   7127     0    25616.5223  1075    29881.0000       Cuts: 9    70649   14.27%
   7127     0    25668.9253   969    29881.0000      Cuts: 15    70699   14.10%
*  7127+    0                        29861.0000    25668.9253            14.04%
   7127     0    25670.7148  1017    29861.0000      Cuts: 26    70741   14.03%

Mixed integer rounding cuts applied:  199
Flow path cuts applied:  0
Zero-half cuts applied:  66
Gomory fractional cuts applied:  40
Disjunctive cuts applied:  0
Cone linearizations applied:  0

Root node processing (before b&c):
  Real time             =    3.55 sec. (2945.67 ticks)
Parallel b&c, 8 threads:
  Real time             =    6.47 sec. (5121.37 ticks)
  Sync time (average)   =    1.05 sec.
  Wait time (average)   =    0.00 sec.
                          ------------
Total (root+branch&cut) =   10.02 sec. (8067.05 ticks)
Gap: 14.03%
Upper bound: 29861
Lower bound: 25670.7
End of CPLEX run. Time: 10.0227 seconds

===== New CPLEX run =====
Instance: /home/yorig/tuner/mpils-tests/instances/miplib/medium-1/neos-3024952-loue.mps
Config: /scratch/yorig/mpils-results-grid-seconds-10-no-mip-start/medium-1/4proc/seed-1/9_neos-3024952-loue_seed-1_20260503_044429/expansion/config_param_CPXPARAM_MIP_Limits_AggForCut_10_iter_3.prm
========================

Selected objective sense:  MINIMIZE
Selected objective  name:  R3706
Selected RHS        name:  B
Selected bound      name:  BOUND
Version identifier: 22.1.2.0 | 2024-11-26 | 0edbb82fd
CPXPARAM_Threads                                 8
CPXPARAM_Parallel                                1
CPXPARAM_MIP_Cuts_Cliques                        -1
CPXPARAM_MIP_Limits_GomoryCand                   50
CPXPARAM_MIP_Cuts_PathCut                        1
CPXPARAM_MIP_Cuts_MIRCut                         2
CPXPARAM_MIP_Cuts_Disjunctive                    1
CPXPARAM_MIP_Limits_AggForCut                    10
CPXPARAM_Emphasis_MIP                            4
CPXPARAM_MIP_Strategy_Dive                       1
CPXPARAM_TimeLimit                               10
Tried aggregator 2 times.
MIP Presolve eliminated 40 rows and 0 columns.
MIP Presolve modified 80 coefficients.
Aggregator did 32 substitutions.
Reduced MIP has 3633 rows, 3223 columns, and 15906 nonzeros.
Reduced MIP has 0 binaries, 3223 generals, 0 SOSs, and 0 indicators.
Presolve time = 0.01 sec. (7.72 ticks)
Tried aggregator 1 time.
Detecting symmetries...
Reduced MIP has 3633 rows, 3223 columns, and 15906 nonzeros.
Reduced MIP has 0 binaries, 3223 generals, 0 SOSs, and 0 indicators.
Presolve time = 0.01 sec. (8.53 ticks)
MIP emphasis: hidden feasible solutions.
MIP search method: dynamic search.
Parallel mode: deterministic, using up to 8 threads.
Root relaxation solution time = 0.21 sec. (166.79 ticks)

        Nodes                                         Cuts/
   Node  Left     Objective  IInf  Best Integer    Best Bound    ItCnt     Gap

      0     0    22882.0000   397                  22882.0000     3901         
      0     0    23571.3985   699                   Cuts: 446     4327         
      0     0    23671.2988   816                   Cuts: 291     4480         
      0     0    23787.6152  1035                   Cuts: 273     4596         
      0     0    23804.2762   888                   Cuts: 286     4697         
      0     0    23863.6262  1066                   Cuts: 267     4798         
Detecting symmetries...
      0     0    24034.5562  1005                   Cuts: 311     4972         
      0     0    24222.8032  1076                   Cuts: 289     5103         
      0     0    24492.8020   935                   Cuts: 252     5237         
      0     0    24855.9620  1081                   Cuts: 213     5397         
      0     0    25112.5006   992                   Cuts: 190     5534         
      0     0    25352.3636   885                   Cuts: 191     5664         
      0     0    25463.8509  1148                   Cuts: 152     5744         
      0     0    25509.0672  1197                   Cuts: 124     5831         
      0     0    25571.0694  1344                    Cuts: 89     5898         
      0     0    25796.4614  1172                    Cuts: 66     6007         
      0     0    25909.4715  1172                    Cuts: 83     6072         
      0     0    25944.4827  1467                    Cuts: 60     6122         
      0     0    26032.9909  1290                    Cuts: 53     6199         
      0     0    26037.6722  1214                    Cuts: 38     6234         
      0     0    26083.0787  1138                    Cuts: 32     6267         
      0     0    26088.6489  1166                    Cuts: 25     6299         
      0     0    26124.7234  1178                    Cuts: 26     6330         
      0     0    26132.2736  1263                    Cuts: 21     6354         
      0     0    26133.3343  1194                    Cuts: 14     6384         
      0     0    26146.6238   938                    Cuts: 14     6395         
      0     0    26149.9571   942                    Cuts: 18     6407         
      0     0    26173.3747   951                     Cuts: 8     6427         
      0     0    26174.0733   980                    Cuts: 11     6431         
Detecting symmetries...
      0     2    26174.0733   980                  26174.0733     6431         
Elapsed time = 3.99 sec. (3065.73 ticks, tree = 0.02 MB, solutions = 0)
    570   525    26323.2195   956                  26174.0733     9984         
   1294  1002    26475.5361   824                  26174.0733    13443         
   2375  2163    27266.6429   541                  26174.0733    22213         
*  3726  3403      integral     0    29966.0000    26174.0733    31979   12.65%
*  3761+ 3377                        29656.0000    26174.0733            11.74%
   3835  3611    29198.4444   108    29656.0000    26174.0733    33361   11.74%
*  4398+ 3857                        28708.0000    26174.0733             8.83%
   4398  3856    28708.0000     0    28708.0000    26174.0733    35875    8.83%
*  4498+ 3581                        28678.0000    26174.0733             8.73%
   4520  3594    26525.5903   895    28678.0000    26174.0733    38229    8.73%
   4598  4108    26213.5119   663    28678.0000    26174.0733    37350    8.73%
   4989  3972    26847.5304   752    28678.0000    26174.0733    40961    8.73%
*  5180+ 4120                        28216.0000    26174.0733             7.24%
*  5180+ 4120                        27926.0000    26174.0733             6.27%
   5180  3999    26221.4430  1005    27926.0000    26174.0733    36770    6.27%

Performing restart 1

Repeating presolve.
Tried aggregator 1 time.
MIP Presolve modified 16 coefficients.
Reduced MIP has 3633 rows, 3223 columns, and 15892 nonzeros.
Reduced MIP has 0 binaries, 3223 generals, 0 SOSs, and 0 indicators.
Presolve time = 0.00 sec. (6.35 ticks)
Tried aggregator 1 time.
Reduced MIP has 3633 rows, 3223 columns, and 15892 nonzeros.
Reduced MIP has 0 binaries, 3223 generals, 0 SOSs, and 0 indicators.
Presolve time = 0.01 sec. (8.81 ticks)
Represolve time = 0.04 sec. (41.88 ticks)
   5183     0    26204.6210   768    27926.0000      Cuts: 97    50777    6.16%
   5183     0    26217.1281   721    27926.0000      Cuts: 29    50823    6.12%
*  5183+    0                        27580.0000    26217.1281             4.94%
   5183     0    26228.1783   795    27580.0000      Cuts: 32    50871    4.90%
   5183     0    26232.7671   806    27580.0000      Cuts: 35    50908    4.88%
   5183     0    26235.3185   813    27580.0000      Cuts: 14    50937    4.88%
   5183     0    26236.2320   789    27580.0000      Cuts: 12    50973    4.87%
   5183     0    26241.0470   754    27580.0000      Cuts: 19    50994    4.85%
   5183     0    26256.8544   844    27580.0000       Cuts: 9    51012    4.80%
   5183     0    26259.9540   873    27580.0000      Cuts: 10    51033    4.79%
   5183     0    26260.3431   845    27580.0000    MIRcuts: 3    51040    4.78%
   5183     0    26261.0481   732    27580.0000       Cuts: 2    51054    4.78%
   5183     0    26261.9814   794    27580.0000      Cuts: 22    51058    4.78%
   5183     0    26273.7807   864    27580.0000       Cuts: 9    51075    4.74%

Mixed integer rounding cuts applied:  301
Flow path cuts applied:  0
Zero-half cuts applied:  41
Gomory fractional cuts applied:  31
Disjunctive cuts applied:  0
Cone linearizations applied:  0

Root node processing (before b&c):
  Real time             =    3.98 sec. (3062.89 ticks)
Parallel b&c, 8 threads:
  Real time             =    6.14 sec. (5587.06 ticks)
  Sync time (average)   =    0.93 sec.
  Wait time (average)   =    0.00 sec.
                          ------------
Total (root+branch&cut) =   10.12 sec. (8649.95 ticks)
Gap: 4.74%
Upper bound: 27580
Lower bound: 26273.8
End of CPLEX run. Time: 10.1191 seconds
